qbf_easy_train/easy_3224_SAT.qdimacs
p cnf 24 60
a 10 3 0
e 1 2 4 5 6 7 8 9 11 12 13 14 15 16 17 18 19 20 21 22 23 24 0
3 -1 0
3 -2 0
1 2 -3 0
-6 -4 0
-6 5 0
4 -5 6 0
-3 -6 -7 0
3 6 -7 0
-3 6 7 0
3 -6 7 0
11 9 0
11 -10 0
-9 10 -11 0
12 -8 0
12 11 0
8 -11 -12 0
13 -10 0
13 -11 0
10 11 -13 0
14 12 0
14 13 0
-12 -13 -14 0
15 -4 0
15 -5 0
4 5 -15 0
1 -16 -17 0
-1 16 -17 0
1 16 17 0
-1 -16 17 0
18 -15 0
18 17 0
15 -17 -18 0
-19 5 0
-19 -4 0
-5 4 19 0
11 -10 -20 0
-11 10 -20 0
11 10 20 0
-11 -10 20 0
19 20 -21 0
-19 -20 -21 0
19 -20 21 0
-19 20 21 0
-18 -21 -22 0
18 21 -22 0
-18 21 22 0
18 -21 22 0
23 14 0
23 -22 0
-14 22 -23 0
7 23 -24 0
-7 -23 -24 0
7 -23 24 0
-7 23 24 0
19 -23 -15 -9 5 -21 0
13 -21 -6 14 10 0
3 -14 6 2 10 9 0
-3 16 12 14 0
-15 18 1 2 -17 7 0
24 0
