sat_easy_train/easy_3224_SAT.dimacs
p cnf 119 390
-3 -1 0
-3 -2 0
1 2 3 0
5 3 0
5 -4 0
-3 4 -5 0
6 5 0
6 3 0
-5 -3 -6 0
7 8 -9 0
-7 -8 -9 0
7 -8 9 0
-7 8 9 0
8 10 -11 0
-8 -10 -11 0
8 -10 11 0
-8 10 11 0
-12 11 0
-12 -1 0
-11 1 12 0
-14 -13 0
-14 -5 0
13 5 14 0
12 14 -15 0
-12 -14 -15 0
12 -14 15 0
-12 14 15 0
16 9 0
16 15 0
-9 -15 -16 0
17 -6 0
17 -16 0
6 16 -17 0
19 -1 0
19 18 0
1 -18 -19 0
-8 19 -20 0
8 -19 -20 0
-8 -19 20 0
8 19 20 0
21 -17 0
21 20 0
17 -20 -21 0
-22 -23 -24 0
22 23 -24 0
-22 23 24 0
22 -23 24 0
-26 -22 0
-26 -11 0
22 11 26 0
25 26 -27 0
-25 -26 -27 0
25 -26 27 0
-25 26 27 0
-29 4 -30 0
29 -4 -30 0
-29 -4 30 0
29 4 30 0
31 28 0
31 30 0
-28 -30 -31 0
-32 14 0
-32 -11 0
-14 11 32 0
-33 -32 0
-33 12 0
32 -12 33 0
34 -31 0
34 -33 0
31 33 -34 0
-27 -34 -35 0
27 34 -35 0
-27 34 35 0
27 -34 35 0
36 -24 0
36 35 0
24 -35 -36 0
-2 -16 -37 0
2 16 -37 0
-2 16 37 0
2 -16 37 0
-36 -37 -38 0
36 37 -38 0
-36 37 38 0
36 -37 38 0
-39 -30 0
-39 -15 0
30 15 39 0
40 38 0
40 39 0
-38 -39 -40 0
41 -21 0
41 -40 0
21 40 -41 0
-42 23 0
-42 7 0
-23 -7 42 0
43 -25 0
43 18 0
25 -18 -43 0
44 -43 0
44 4 0
43 -4 -44 0
42 -44 -45 0
-42 44 -45 0
42 44 45 0
-42 -44 45 0
-46 5 0
-46 45 0
-5 -45 46 0
47 -15 0
47 -1 0
15 1 -47 0
-48 -20 0
-48 47 0
20 -47 48 0
49 -28 0
49 -43 0
28 43 -49 0
28 -50 0
-28 -50 0
-51 50 0
-51 32 0
-50 -32 51 0
52 49 0
52 -51 0
-49 51 -52 0
48 52 -53 0
-48 -52 -53 0
48 -52 53 0
-48 52 53 0
54 46 0
54 53 0
-46 -53 -54 0
13 -9 -55 0
-13 9 -55 0
13 9 55 0
-13 -9 55 0
-56 9 0
-56 -55 0
-9 55 56 0
-58 -56 0
-58 -57 0
56 57 58 0
59 50 0
59 -28 0
-50 28 -59 0
60 -58 0
60 -59 0
58 59 -60 0
-61 -15 0
-61 -56 0
15 56 61 0
62 14 0
62 -11 0
-14 11 -62 0
63 -62 0
63 19 0
62 -19 -63 0
-64 55 0
-64 -49 0
-55 49 64 0
65 32 0
65 -64 0
-32 64 -65 0
-66 49 0
-66 2 0
-49 -2 66 0
-67 66 0
-67 -66 0
-65 67 -68 0
65 -67 -68 0
-65 -67 68 0
65 67 68 0
69 -44 0
69 7 0
44 -7 -69 0
7 -69 -70 0
-7 69 -70 0
7 69 70 0
-7 -69 70 0
-71 -70 0
-71 1 0
70 -1 71 0
68 71 -72 0
-68 -71 -72 0
68 -71 72 0
-68 71 72 0
-73 63 0
-73 72 0
-63 -72 73 0
29 -28 -74 0
-29 28 -74 0
29 28 74 0
-29 -28 74 0
-75 74 0
-75 50 0
-74 -50 75 0
-28 -12 -76 0
28 12 -76 0
-28 12 76 0
28 -12 76 0
77 -75 0
77 76 0
75 -76 -77 0
78 73 0
78 77 0
-73 -77 -78 0
-69 2 -79 0
69 -2 -79 0
-69 -2 79 0
69 2 79 0
80 -44 0
80 1 0
44 -1 -80 0
81 79 0
81 -80 0
-79 80 -81 0
-78 81 -82 0
78 -81 -82 0
-78 -81 82 0
78 81 82 0
-61 82 -83 0
61 -82 -83 0
-61 -82 83 0
61 82 83 0
-60 -83 -84 0
60 83 -84 0
-60 83 84 0
60 -83 84 0
-85 54 0
-85 -84 0
-54 84 85 0
-41 85 -86 0
41 -85 -86 0
-41 -85 86 0
41 85 86 0
-87 20 0
-87 58 0
-20 -58 87 0
-87 -88 -89 0
87 88 -89 0
-87 88 89 0
87 -88 89 0
-90 -55 0
-90 -42 0
55 42 90 0
-91 89 0
-91 90 0
-89 -90 91 0
-92 70 0
-92 69 0
-70 -69 92 0
69 93 0
-69 93 0
-94 -51 0
-94 9 0
51 -9 94 0
93 94 -95 0
-93 -94 -95 0
93 -94 95 0
-93 94 95 0
96 -92 0
96 95 0
92 -95 -96 0
91 -96 -97 0
-91 96 -97 0
91 96 97 0
-91 -96 97 0
98 -64 0
98 -15 0
64 15 -98 0
99 98 0
99 -12 0
-98 12 -99 0
-100 -50 0
-100 67 0
50 -67 100 0
-101 99 0
-101 -100 0
-99 100 101 0
102 97 0
102 -101 0
-97 101 -102 0
103 69 0
103 -16 0
-69 16 -103 0
1 -103 -104 0
-1 103 -104 0
1 103 104 0
-1 -103 104 0
-105 102 0
-105 104 0
-102 -104 105 0
106 -11 0
106 -7 0
11 7 -106 0
107 105 0
107 106 0
-105 -106 -107 0
28 -108 -109 0
-28 108 -109 0
28 108 109 0
-28 -108 109 0
-110 107 0
-110 -109 0
-107 109 110 0
111 -42 0
111 -42 0
42 -111 0
-112 -29 0
-112 -25 0
29 25 112 0
112 55 -113 0
-112 -55 -113 0
112 -55 113 0
-112 55 113 0
8 -5 -114 0
-8 5 -114 0
8 5 114 0
-8 -5 114 0
-114 57 -115 0
114 -57 -115 0
-114 -57 115 0
114 57 115 0
116 -113 0
116 115 0
113 -115 -116 0
117 111 0
117 116 0
-111 -116 -117 0
-118 110 0
-118 117 0
-110 -117 118 0
86 -118 -119 0
-86 118 -119 0
86 118 119 0
-86 -118 119 0
-17 -14 -76 -9 0
70 54 0
-71 -41 0
-73 -119 -80 5 83 113 0
-25 55 -47 0
-63 -36 117 -96 0
-5 -106 104 -67 0
-88 -97 -27 41 0
110 -82 117 13 0
32 46 0
45 69 -19 -53 22 80 0
100 63 -85 -32 0
109 88 -115 -11 -42 0
101 -17 -66 -94 61 -110 0
-111 -93 116 45 -32 0
-24 54 35 0
-77 -118 17 97 0
76 37 -56 0
11 -59 -110 -99 0
74 -1 -41 0
-71 33 20 0
-9 -64 69 13 -74 0
93 49 -21 0
42 -57 -53 0
83 55 39 -15 -93 0
54 31 83 19 -24 -27 0
89 -75 -69 -47 15 -28 0
62 -25 -116 -91 0
-70 -19 -72 92 99 61 0
74 29 -14 92 75 0
86 19 20 0
26 -91 -69 29 0
25 76 100 103 0
45 13 -67 -93 -42 0
-75 50 -83 0
56 -85 -71 0
23 -38 0
58 99 76 -43 17 -73 0
-36 -19 64 108 0
65 -62 14 0
-91 38 0
-78 5 -44 -101 0
-97 28 63 0
-87 1 -106 10 -83 -44 0
51 -43 97 -5 0
44 -28 102 0
16 -44 -8 36 0
31 -49 97 4 0
-69 57 0
25 2 102 7 0
-95 91 0
119 0
